12
0 24 1 53 38 74 7 2 77 72 69 32 
37 0 45 25 2 79 12 90 73 61 20 49 
89 52 0 3 83 43 92 6 59 23 55 11 
87 16 76 0 27 6 58 9 93 8 19 38 
74 41 21 84 0 98 3 39 86 99 59 50 
39 33 78 90 96 0 17 92 69 91 98 68 
19 89 69 34 39 52 0 72 57 65 4 6 
65 96 18 4 20 78 33 0 47 66 33 33 
64 99 80 21 92 68 59 9 0 17 2 47 
52 96 26 33 38 41 76 81 49 0 85 95 
58 82 58 92 25 86 12 22 69 30 0 69 
45 97 38 69 54 84 52 84 67 87 53 0 
